proyfinal/src/viki/013/experimentInOfficeAgust.take6.output/adf31f73-0f88-4e01-a818-a71adf7ecf44.als.dat
{'cnf.clauses': '118081',
 'cnf.totvars': '69608',
 'conflict literals': '93',
 'conflicts': '36',
 'decisions': '2583',
 'memused.mb': '16.62',
 'outcome': 'UNSAT',
 'propagations': '65988',
 'restarts': '1',
 'solver.msecs': 35,
 'task.msecs': 144}
