proyfinal/src/viki/013/experimentInOfficeAgust.take6.output/adf31f73-0f88-4e01-a818-a71adf7ecf44.als.out
Reading from standard input... Use '--help' for help.
============================[ Problem Statistics ]=============================
|                                                                             |
|  Number of variables:         69608                                         |
|  Number of clauses:          118081                                         |
|  Parse time:                   0.03 s                                       |
|                                                                             |
============================[ Search Statistics ]==============================
| Conflicts |          ORIGINAL         |          LEARNT          | Progress |
|           |    Vars  Clauses Literals |    Limit  Clauses Lit/Cl |          |
===============================================================================
===============================================================================
restarts              : 1
conflicts             : 36             (1021 /sec)
decisions             : 2583           (0.00 % random) (73264 /sec)
propagations          : 65988          (1871681 /sec)
conflict literals     : 93             (34.97 % deleted)
Memory used           : 16.62 MB
CPU time              : 0.035256 s

UNSATISFIABLE
